357 354 353 355 356 412 411 410 418 419 417 413 414 416 415 352 351 350 349 348 347 346 362 361 363 364 345 344 343 342 341 340 330 331 332 333 339 338 337 336 335 334 283 284 285 286 287 280 281 282 279 278 277 276 288 289 290 291 292 275 274 273 272 271 267 268 269 270 293 294 295 296 297 298 266 265 264 263 262 261 260 259 258 299 300 257 256 255 253 254 252 251 250 249 248 241 242 243 244 245 247 246 238 239 240 237 236 235 234 232 233 530 531 489 532 533 231 230 229 228 227 189 225 226 190 191 192 193 219 218 220 221 222 224 223 217 216 215 214 213 212 211 210 209 208 207 206 205 197 196 195 194 184 183 185 186 188 187 540 538 539 537 536 535 487 534 488 486 485 484 483 481 482 475 476 480 479 477 478 566 565 563 564 549 548 545 546 547 544 543 541 542 107 109 108 173 174 175 176 177 178 182 179 181 180 169 171 170 172 110 111 114 112 113 161 160 162 168 163 167 166 198 199 200 201 202 204 203 165 164 154 155 159 156 153 157 158 145 146 144 143 142 147 148 152 149 150 151 141 140 139 136 135 134 133 132 131 130 129 137 138 124 125 126 127 128 116 115 117 122 123 71 70 69 68 67 66 65 72 73 74 75 77 76 64 63 61 60 59 58 57 82 83 56 55 53 54 52 51 84 86 87 81 80 79 62 78 88 89 119 120 121 118 106 105 104 103 98 96 95 97 94 93 91 92 90 85 50 49 48 47 46 555 45 44 43 42 39 40 41 556 554 553 552 99 100 102 101 551 550 562 561 560 559 558 557 34 33 35 38 37 36 32 30 31 22 23 21 24 25 26 27 28 29 567 474 473 472 494 495 471 470 469 468 467 466 465 496 464 463 462 461 459 460 571 570 569 568 20 19 18 17 16 15 14 13 12 11 10 9 8 7 6 572 573 5 0 4 3 2 1 458 457 456 455 454 438 437 436 435 434 433 432 430 431 429 428 427 426 420 421 422 423 424 425 382 386 387 388 389 390 392 391 393 394 371 372 396 395 375 376 377 378 379 380 381 445 444 443 439 442 446 447 448 449 450 441 440 453 452 499 500 501 498 497 519 518 520 521 522 523 526 525 524 493 492 491 490 529 528 527 512 511 510 509 513 514 515 516 517 502 503 504 505 308 309 310 311 451 312 313 305 307 506 507 508 302 301 303 304 306 319 321 320 318 317 316 314 315 374 373 322 323 324 325 326 327 328 329 366 367 365 368 369 370 398 397 399 407 408 385 383 384 409 405 406 404 400 403 402 401 360 359 358